15,2	0,0	12,2	8,6	0,0	0,0	0,0	0,0	0,0	15,2
16,0	9,3	0,0	6,9	9,6	0,0	0,0	9,4	0,0	0,0
0,0	0,0	19,5	0,0	16,5	9,3	0,0	0,0	8,4	0,0
5,4	0,0	19,2	0,0	0,0	0,0	13,4	0,0	0,0	0,0
0,0	7,1	0,0	12,0	14,5	0,0	0,0	13,8	0,0	0,0
0,0	15,6	8,2	0,0	13,2	14,3	0,0	0,0	9,8	0,0
0,0	17,2	0,0	19,8	0,0	0,0	10,6	0,0	0,0	18,5
6,0	0,0	10,8	0,0	0,0	0,0	0,0	0,0	0,0	5,9
0,0	11,1	0,0	16,2	7,6	0,0	0,0	14,2	0,0	0,0
0,0	0,0	11,0	0,0	0,0	8,6	5,4	0,0	0,0	9,1
									
3,3	3,1	3,7	3,6	3,0	2,6	4,7	4,3	4,7	3,2
